50 10789

75
83
369
90
422
103
460
391
385
463
366
371
395
104
326
12
376
18
357
19
118
379
323
144
163
170
255
113
149
465
444
35
40
76
330
480
491
418
201
185
185
468
359
419
286
473
385
299
121
328
